
(declare-fun C2 () (_ BitVec 45))
(declare-fun C1 () (_ BitVec 45))
(assert (let ((_let_0 (bvult (bvsub (_ bv45 45) (bvsub (bvsub (_ bv45 45) (ite (not (= ((_ extract 44 23) C2) (_ bv0 22))) (ite (not (= ((_ extract 44 34) C2) (_ bv0 11))) (ite (not (= ((_ extract 44 40) C2) (_ bv0 5))) (ite (not (= ((_ extract 44 43) C2) (_ bv0 2))) (ite (not (= ((_ extract 44 44) C2) (_ bv0 1))) (_ bv44 45) (_ bv43 45)) (ite (not (= ((_ extract 42 42) C2) (_ bv0 1))) (_ bv42 45) (ite (not (= ((_ extract 41 41) C2) (_ bv0 1))) (_ bv41 45) (_ bv40 45)))) (ite (not (= ((_ extract 39 37) C2) (_ bv0 3))) (ite (not (= ((_ extract 39 39) C2) (_ bv0 1))) (_ bv39 45) (ite (not (= ((_ extract 38 38) C2) (_ bv0 1))) (_ bv38 45) (_ bv37 45))) (ite (not (= ((_ extract 36 36) C2) (_ bv0 1))) (_ bv36 45) (ite (not (= ((_ extract 35 35) C2) (_ bv0 1))) (_ bv35 45) (_ bv34 45))))) (ite (not (= ((_ extract 33 29) C2) (_ bv0 5))) (ite (not (= ((_ extract 33 32) C2) (_ bv0 2))) (ite (not (= ((_ extract 33 33) C2) (_ bv0 1))) (_ bv33 45) (_ bv32 45)) (ite (not (= ((_ extract 31 31) C2) (_ bv0 1))) (_ bv31 45) (ite (not (= ((_ extract 30 30) C2) (_ bv0 1))) (_ bv30 45) (_ bv29 45)))) (ite (not (= ((_ extract 28 26) C2) (_ bv0 3))) (ite (not (= ((_ extract 28 28) C2) (_ bv0 1))) (_ bv28 45) (ite (not (= ((_ extract 27 27) C2) (_ bv0 1))) (_ bv27 45) (_ bv26 45))) (ite (not (= ((_ extract 25 25) C2) (_ bv0 1))) (_ bv25 45) (ite (not (= ((_ extract 24 24) C2) (_ bv0 1))) (_ bv24 45) (_ bv23 45)))))) (ite (not (= ((_ extract 22 12) C2) (_ bv0 11))) (ite (not (= ((_ extract 22 18) C2) (_ bv0 5))) (ite (not (= ((_ extract 22 21) C2) (_ bv0 2))) (ite (not (= ((_ extract 22 22) C2) (_ bv0 1))) (_ bv22 45) (_ bv21 45)) (ite (not (= ((_ extract 20 20) C2) (_ bv0 1))) (_ bv20 45) (ite (not (= ((_ extract 19 19) C2) (_ bv0 1))) (_ bv19 45) (_ bv18 45)))) (ite (not (= ((_ extract 17 15) C2) (_ bv0 3))) (ite (not (= ((_ extract 17 17) C2) (_ bv0 1))) (_ bv17 45) (ite (not (= ((_ extract 16 16) C2) (_ bv0 1))) (_ bv16 45) (_ bv15 45))) (ite (not (= ((_ extract 14 14) C2) (_ bv0 1))) (_ bv14 45) (ite (not (= ((_ extract 13 13) C2) (_ bv0 1))) (_ bv13 45) (_ bv12 45))))) (ite (not (= ((_ extract 11 6) C2) (_ bv0 6))) (ite (not (= ((_ extract 11 9) C2) (_ bv0 3))) (ite (not (= ((_ extract 11 11) C2) (_ bv0 1))) (_ bv11 45) (ite (not (= ((_ extract 10 10) C2) (_ bv0 1))) (_ bv10 45) (_ bv9 45))) (ite (not (= ((_ extract 8 8) C2) (_ bv0 1))) (_ bv8 45) (ite (not (= ((_ extract 7 7) C2) (_ bv0 1))) (_ bv7 45) (_ bv6 45)))) (ite (not (= ((_ extract 5 3) C2) (_ bv0 3))) (ite (not (= ((_ extract 5 5) C2) (_ bv0 1))) (_ bv5 45) (ite (not (= ((_ extract 4 4) C2) (_ bv0 1))) (_ bv4 45) (_ bv3 45))) (ite (not (= ((_ extract 2 2) C2) (_ bv0 1))) (_ bv2 45) (ite (not (= ((_ extract 1 1) C2) (_ bv0 1))) (_ bv1 45) (_ bv0 45)))))))) (_ bv1 45))) (_ bv45 45)))) (and (= C1 (bvneg C2)) (not (= (bvand C2 (bvshl (_ bv35184372088831 45) (bvsub (_ bv45 45) (bvsub (bvsub (_ bv45 45) (ite (not (= ((_ extract 44 23) C2) (_ bv0 22))) (ite (not (= ((_ extract 44 34) C2) (_ bv0 11))) (ite (not (= ((_ extract 44 40) C2) (_ bv0 5))) (ite (not (= ((_ extract 44 43) C2) (_ bv0 2))) (ite (not (= ((_ extract 44 44) C2) (_ bv0 1))) (_ bv44 45) (_ bv43 45)) (ite (not (= ((_ extract 42 42) C2) (_ bv0 1))) (_ bv42 45) (ite (not (= ((_ extract 41 41) C2) (_ bv0 1))) (_ bv41 45) (_ bv40 45)))) (ite (not (= ((_ extract 39 37) C2) (_ bv0 3))) (ite (not (= ((_ extract 39 39) C2) (_ bv0 1))) (_ bv39 45) (ite (not (= ((_ extract 38 38) C2) (_ bv0 1))) (_ bv38 45) (_ bv37 45))) (ite (not (= ((_ extract 36 36) C2) (_ bv0 1))) (_ bv36 45) (ite (not (= ((_ extract 35 35) C2) (_ bv0 1))) (_ bv35 45) (_ bv34 45))))) (ite (not (= ((_ extract 33 29) C2) (_ bv0 5))) (ite (not (= ((_ extract 33 32) C2) (_ bv0 2))) (ite (not (= ((_ extract 33 33) C2) (_ bv0 1))) (_ bv33 45) (_ bv32 45)) (ite (not (= ((_ extract 31 31) C2) (_ bv0 1))) (_ bv31 45) (ite (not (= ((_ extract 30 30) C2) (_ bv0 1))) (_ bv30 45) (_ bv29 45)))) (ite (not (= ((_ extract 28 26) C2) (_ bv0 3))) (ite (not (= ((_ extract 28 28) C2) (_ bv0 1))) (_ bv28 45) (ite (not (= ((_ extract 27 27) C2) (_ bv0 1))) (_ bv27 45) (_ bv26 45))) (ite (not (= ((_ extract 25 25) C2) (_ bv0 1))) (_ bv25 45) (ite (not (= ((_ extract 24 24) C2) (_ bv0 1))) (_ bv24 45) (_ bv23 45)))))) (ite (not (= ((_ extract 22 12) C2) (_ bv0 11))) (ite (not (= ((_ extract 22 18) C2) (_ bv0 5))) (ite (not (= ((_ extract 22 21) C2) (_ bv0 2))) (ite (not (= ((_ extract 22 22) C2) (_ bv0 1))) (_ bv22 45) (_ bv21 45)) (ite (not (= ((_ extract 20 20) C2) (_ bv0 1))) (_ bv20 45) (ite (not (= ((_ extract 19 19) C2) (_ bv0 1))) (_ bv19 45) (_ bv18 45)))) (ite (not (= ((_ extract 17 15) C2) (_ bv0 3))) (ite (not (= ((_ extract 17 17) C2) (_ bv0 1))) (_ bv17 45) (ite (not (= ((_ extract 16 16) C2) (_ bv0 1))) (_ bv16 45) (_ bv15 45))) (ite (not (= ((_ extract 14 14) C2) (_ bv0 1))) (_ bv14 45) (ite (not (= ((_ extract 13 13) C2) (_ bv0 1))) (_ bv13 45) (_ bv12 45))))) (ite (not (= ((_ extract 11 6) C2) (_ bv0 6))) (ite (not (= ((_ extract 11 9) C2) (_ bv0 3))) (ite (not (= ((_ extract 11 11) C2) (_ bv0 1))) (_ bv11 45) (ite (not (= ((_ extract 10 10) C2) (_ bv0 1))) (_ bv10 45) (_ bv9 45))) (ite (not (= ((_ extract 8 8) C2) (_ bv0 1))) (_ bv8 45) (ite (not (= ((_ extract 7 7) C2) (_ bv0 1))) (_ bv7 45) (_ bv6 45)))) (ite (not (= ((_ extract 5 3) C2) (_ bv0 3))) (ite (not (= ((_ extract 5 5) C2) (_ bv0 1))) (_ bv5 45) (ite (not (= ((_ extract 4 4) C2) (_ bv0 1))) (_ bv4 45) (_ bv3 45))) (ite (not (= ((_ extract 2 2) C2) (_ bv0 1))) (_ bv2 45) (ite (not (= ((_ extract 1 1) C2) (_ bv0 1))) (_ bv1 45) (_ bv0 45)))))))) (_ bv1 45))))) (_ bv0 45))) (not (and _let_0 _let_0)) (= (bvand C2 (bvsub C2 (_ bv1 45))) (_ bv0 45)) (not (= C2 (_ bv0 45))))))
(assert true)
(check-sat)